set nodes:= 1 2 3 4 5 6 7 8 9;

set arcs:=
(1,2) #A
(1,3) #B
(1,4) #C
(2,5) #D
(3,6) #E
(6,8) #F
(3,7) #G
(4,7) #H
(5,8) #I
(8,9) #J
(7,9); #K

param dur:=
1 2 2 #A
1 3 2 #B
1 4 1 #C
2 5 4 #D
3 6 5 #E
6 8 4 #F
3 7 8 #G
4 7 3 #H
5 8 1 #I
8 9 3 #J
7 9 5; #K

  Start[Dependencies[i,1]] = (if VectorBinari[i] = 1, );